Gurobi 12.0.3:   lim:time = 14400

  mip:bestbound = 1

Set parameter LogToConsole to value 1

  tech:outlev = 1

Set parameter Cuts to value 3

  cut:cuts = 3

Set parameter Presolve to value 2

  pre:solve = 2

Set parameter MIPFocus to value 2

  mip:focus = 2

Set parameter Symmetry to value 2

  mip:symmetry = 2

Set parameter InfUnbdInfo to value 1

Gurobi Optimizer version 12.0.3 build v12.0.3rc0 (win64 - Windows 11+.0 (26200.2))



CPU model: 13th Gen Intel(R) Core(TM) i7-13700K, instruction set [SSE2|AVX|AVX2]

Thread count: 16 physical cores, 24 logical processors, using up to 24 threads



Non-default parameters:

TimeLimit  14400

MIPFocus  2

Symmetry  2

Cuts  3

InfUnbdInfo  1

Presolve  2



Optimize a model with 470 rows, 978 columns and 5597 nonzeros

Model fingerprint: 0xb5fa5309

Model has 2 quadratic objective terms

Model has 6 quadratic constraints

Variable types: 39 continuous, 939 integer (0 binary)

Coefficient statistics:

  Matrix range     [1e+00, 1e+05]

  QMatrix range    [1e+00, 1e+00]

  QLMatrix range   [1e+00, 1e+01]

  Objective range  [4e+00, 1e+02]

  QObjective range [2e+00, 2e+00]

  Bounds range     [1e+00, 1e+02]

  RHS range        [1e+00, 1e+05]

  QRHS range       [1e+02, 1e+02]

Presolve removed 50 rows and 93 columns

Presolve time: 0.12s

Presolved: 1071 rows, 1527 columns, 8845 nonzeros

Variable types: 127 continuous, 1400 integer (1176 binary)

Root relaxation presolve removed 21 rows and 1 columns

Root relaxation presolved: 729 rows, 1206 columns, 13747 nonzeros





Root relaxation: objective 1.080487e+02, 169 iterations, 0.01 seconds (0.02 work units)



    Nodes    |    Current Node    |     Objective Bounds      |     Work

 Expl Unexpl |  Obj  Depth IntInf | Incumbent    BestBd   Gap | It/Node Time



     0     0  108.04872    0   51          -  108.04872      -     -    0s

H    0     0                     641.2100000  108.04872  83.1%     -    0s

H    0     0                     619.6000000  108.04872  82.6%     -    0s

H    0     0                     586.7900000  108.04872  81.6%     -    0s

H    0     0                     381.9600000  108.04872  71.7%     -    0s

H    0     0                     372.8900000  124.41839  66.6%     -    0s

H    0     0                     348.9400000  124.41839  64.3%     -    0s

     0     0  138.68000    0   78  348.94000  138.68000  60.3%     -    0s

     0     0  138.68000    0   72  348.94000  138.68000  60.3%     -    0s

     0     0  138.68000    0   45  348.94000  138.68000  60.3%     -    0s

     0     0  138.68000    0   72  348.94000  138.68000  60.3%     -    0s

H    0     0                     346.3300000  138.68000  60.0%     -    0s

     0     0  138.68047    0   37  346.33000  138.68047  60.0%     -    0s

     0     0  138.68047    0   47  346.33000  138.68047  60.0%     -    0s

H    0     0                     320.6500000  138.68047  56.8%     -    0s

H    0     0                     316.3900000  138.68047  56.2%     -    0s

     0     0  138.68106    0   41  316.39000  138.68106  56.2%     -    0s

     0     0  138.68106    0   41  316.39000  138.68106  56.2%     -    0s

     0     0  138.68397    0   46  316.39000  138.68397  56.2%     -    0s

     0     0  138.68397    0   46  316.39000  138.68397  56.2%     -    0s

     0     2  138.68397    0   46  316.39000  138.68397  56.2%     -    1s

  4528  2175  196.93443   30   75  316.39000  194.91501  38.4%  17.1    5s

 28390  9514     cutoff   36       316.39000  217.77709  31.2%  19.5   10s

 44643 14072  274.50834   45   18  316.39000  223.63833  29.3%  19.7   15s

 59112 17705  248.19319   24   41  316.39000  227.48804  28.1%  19.5   20s

 77701 21386  251.27551   46   26  316.39000  231.76183  26.7%  19.4   25s

 93573 24275  245.49771   27   42  316.39000  234.70069  25.8%  19.3   30s

 109403 26839 infeasible   39       316.39000  237.50000  24.9%  19.3   35s

 128367 29150     cutoff   44       316.39000  240.46376  24.0%  19.2   40s

 140502 30372     cutoff   37       316.39000  242.36734  23.4%  19.1   45s

 162782 32379  267.40077   42   32  316.39000  245.59580  22.4%  19.0   50s

 181146 34063  257.03674   41   34  316.39000  248.23055  21.5%  18.9   55s

 196424 34876  261.95393   42   49  316.39000  250.23812  20.9%  18.9   60s

 211314 35656     cutoff   35       316.39000  252.11927  20.3%  18.8   65s

 224808 36272     cutoff   35       316.39000  253.54635  19.9%  18.7   70s

 237847 36481  290.70167   38   41  316.39000  255.15069  19.4%  18.6   75s

 252061 36519  257.11560   42   36  316.39000  256.88522  18.8%  18.5   80s

 264394 35976  279.62634   41   49  316.39000  258.44447  18.3%  18.5   85s

 277559 34719  308.63000   38   30  316.39000  260.34110  17.7%  18.5   90s

*281318 34256              47     314.9800000  260.72952  17.2%  18.5   91s

*281319 34213              46     314.7500000  260.72952  17.2%  18.5   91s

 289774 32696  284.75589   48   37  314.75000  262.35609  16.6%  18.5   95s

 301829 30219  303.65286   46   75  314.75000  264.79562  15.9%  18.5  100s

 315629 26825  290.92833   38   25  314.75000  268.18825  14.8%  18.5  105s

 331835 22414     cutoff   51       314.75000  272.65578  13.4%  18.5  110s

 347644 17669     cutoff   43       314.75000  278.22054  11.6%  18.4  115s

 360595 13328 infeasible   45       314.75000  283.71197  9.86%  18.4  120s

 374060  8549     cutoff   37       314.75000  290.47000  7.71%  18.3  125s

 386247  3891  307.14093   46   13  314.75000  298.78866  5.07%  18.2  130s



Cutting planes:

  Learned: 18

  Gomory: 28

  Lift-and-project: 34

  Cover: 101

  Implied bound: 147

  Projected implied bound: 14

  Clique: 93

  MIR: 80

  Mixing: 8

  StrongCG: 18

  Flow cover: 359

  Inf proof: 114

  Zero half: 540

  RLT: 53

  Relax-and-lift: 230

  BQP: 1



Explored 397313 nodes (7139346 simplex iterations) in 134.80 seconds (61.65 work units)

Thread count was 24 (of 24 available processors)



Solution count 10: 314.75 314.75 314.98 ... 586.79



Optimal solution found (tolerance 1.00e-04)

Best objective 3.147500000000e+02, best bound 3.147500000000e+02, gap 0.0000%



AMPL MP initial flat model has 978 variables (0 integer, 939 binary);

Objectives: 1 quadratic; 

Constraints:  470 linear; 6 quadratic;



AMPL MP final model has 978 variables (0 integer, 939 binary);

Objectives: 1 quadratic; 

Constraints:  470 linear; 6 quadratic;





-----RESULTS INFO-----
running_time:  134.922
TC.best_bound:  314.7499999999999
TC:  314.75
MIP Gap (%):  3.6119726043404617e-14
=== Vehicle Routes ===
Vehicle 1: 0 → 14
Vehicle 1: 1 → 21
Vehicle 1: 2 → 1
Vehicle 1: 14 → 2
Vehicle 2: 0 → 17
Vehicle 2: 3 → 21
Vehicle 2: 17 → 19
Vehicle 2: 19 → 3
Vehicle 3: 0 → 21
Vehicle 4: 0 → 21

=== Full Vehicle Routes ===
Vehicle 1: 0 → 14 → 2 → 1 → 0 (62<100)
Vehicle 2: 0 → 17 → 19 → 3 → 0 (98<100)
Vehicle 3: 0 → 0 (0<100)
Vehicle 4: 0 → 0 (0<100)
Arc used by MRT line: y variables:
MRT used: 14 → 15
Customer assigment to PL: u variables:
4 14
5 19
6 17
7 14
8 15
9 19
10 19
11 17
12 19
13 17
Node is served by regular vehicle: g variables:
1
2
3
14
17
19
Customer assigment to Home delivery: gm variables:
1
2
3
Node total demands: ntd variables:
1 13 1
2 12 1
3 13 1
9 0 0
10 0 0
11 0 0
12 0 0
13 0 0
20 0 0
14 37 1
15 0 0
16 0 0
17 33 1
18 0 0
19 52 1
Customer's demand delivered to PL: l variables:
4
5
6
7
8
9
10
11
12
13
Lockers load <= capacity:
0 <= 71
25 <= 74
12 <= 98
0 <= 84
33 <= 82
0 <= 93
52 <= 73
